0,93,111,41,15,13,108,14,51,48,23,60,94,113,127,76,6,81,16,117,27,115,74,12,57,125,96,116,2,35,33,102,105,49,43,89,121,47,112,118,8,64,66,21,85,75,52,29,20,30,18,7,67,61,77,124,3,87,73,36,54,122,58,37,82,79,80,32,101,68,83,44,5,91,97,46,90,62,100,50,25,10,84,110,70,104,107,120,95,31,42,92,106,56,24,99,22,65,40,34,11,45,123,63,53,38,78,86,103,109,39,126,71,88,1,4,114,59,98,9,55,19,17,28,119,69,72,